p cnf 950
-25 -254
-26 -257
-27 -260
-28 -263
-29 -266
-30 -269
-31 -272
-32 -275
-33 -278
-34 -281
-35 -284
-36 -287
-37 -290
-38 -293
-39 -296
-40 -299
-41 -302
-42 -305
-43 -308
-44 -311
-45 -314
-46 -317
-47 -320
-48 -323
-49 -325
-50 -327
-51 -329
-52 -331
-53 -333
-54 -335
-55 -337
-56 -339
-57 -341
-58 -343
-59 -345
-60 -347
-61 -349
-62 -351
-63 -353
-64 -355
-65 -357
-66 -359
-67 -361
-68 -363
-69 -365
-70 -367
-71 -369
-72 -371
-73 372
-74 -41
-74 48
41 -48 74
-75 41
-75 -48
-41 48 75
-76 -74
-76 -75
74 75 76
-77 -46
-77 -76
46 76 77
-78 46
-78 76
-46 -76 78
-79 -77
-79 -78
77 78 79
-80 -47
-80 -79
47 79 80
-81 47
-81 79
-47 -79 81
-82 -80
-82 -81
80 81 82
-83 -1
-83 -2
1 2 83
-84 -3
-84 -4
3 4 84
-85 -5
-85 -6
5 6 85
-86 -7
-86 -8
7 8 86
-87 -9
-87 -10
9 10 87
-88 -11
-88 -12
11 12 88
-89 -13
-89 -14
13 14 89
-90 -15
-90 -16
15 16 90
-91 -17
-91 -18
17 18 91
-92 -19
-92 -20
19 20 92
-93 -21
-93 -22
21 22 93
-94 -23
-94 -24
23 24 94
-95 83
-95 84
-83 -84 95
-96 85
-96 86
-85 -86 96
-97 87
-97 88
-87 -88 97
-98 89
-98 90
-89 -90 98
-99 91
-99 92
-91 -92 99
-100 93
-100 94
-93 -94 100
-101 95
-101 96
-95 -96 101
-102 97
-102 98
-97 -98 102
-103 99
-103 100
-99 -100 103
-104 101
-104 102
-101 -102 104
-105 103
-105 104
-103 -104 105
-106 -49
-106 -50
49 50 106
-107 -51
-107 -52
51 52 107
-108 -53
-108 -54
53 54 108
-109 -55
-109 -56
55 56 109
-110 -57
-110 -58
57 58 110
-111 -59
-111 -60
59 60 111
-112 -61
-112 -62
61 62 112
-113 -63
-113 -64
63 64 113
-114 -65
-114 -66
65 66 114
-115 -67
-115 -68
67 68 115
-116 -69
-116 -70
69 70 116
-117 -71
-117 -72
71 72 117
-118 106
-118 107
-106 -107 118
-119 108
-119 109
-108 -109 119
-120 110
-120 111
-110 -111 120
-121 112
-121 113
-112 -113 121
-122 114
-122 115
-114 -115 122
-123 116
-123 117
-116 -117 123
-124 118
-124 119
-118 -119 124
-125 120
-125 121
-120 -121 125
-126 122
-126 123
-122 -123 126
-127 124
-127 125
-124 -125 127
-128 126
-128 127
-126 -127 128
-129 49
-129 -82
-49 82 129
-130 -49
-130 82
49 -82 130
-131 -129
-131 -130
129 130 131
-132 25
-132 50
-25 -50 132
-133 -25
-133 -50
25 50 133
-134 -132
-134 -133
132 133 134
-135 26
-135 51
-26 -51 135
-136 -26
-136 -51
26 51 136
-137 -135
-137 -136
135 136 137
-138 27
-138 52
-27 -52 138
-139 -27
-139 -52
27 52 139
-140 -138
-140 -139
138 139 140
-141 28
-141 53
-28 -53 141
-142 -28
-142 -53
28 53 142
-143 -141
-143 -142
141 142 143
-144 29
-144 54
-29 -54 144
-145 -29
-145 -54
29 54 145
-146 -144
-146 -145
144 145 146
-147 30
-147 55
-30 -55 147
-148 -30
-148 -55
30 55 148
-149 -147
-149 -148
147 148 149
-150 31
-150 56
-31 -56 150
-151 -31
-151 -56
31 56 151
-152 -150
-152 -151
150 151 152
-153 32
-153 57
-32 -57 153
-154 -32
-154 -57
32 57 154
-155 -153
-155 -154
153 154 155
-156 33
-156 58
-33 -58 156
-157 -33
-157 -58
33 58 157
-158 -156
-158 -157
156 157 158
-159 34
-159 59
-34 -59 159
-160 -34
-160 -59
34 59 160
-161 -159
-161 -160
159 160 161
-162 35
-162 60
-35 -60 162
-163 -35
-163 -60
35 60 163
-164 -162
-164 -163
162 163 164
-165 36
-165 61
-36 -61 165
-166 -36
-166 -61
36 61 166
-167 -165
-167 -166
165 166 167
-168 37
-168 62
-37 -62 168
-169 -37
-169 -62
37 62 169
-170 -168
-170 -169
168 169 170
-171 38
-171 63
-38 -63 171
-172 -38
-172 -63
38 63 172
-173 -171
-173 -172
171 172 173
-174 39
-174 64
-39 -64 174
-175 -39
-175 -64
39 64 175
-176 -174
-176 -175
174 175 176
-177 40
-177 65
-40 -65 177
-178 -40
-178 -65
40 65 178
-179 -177
-179 -178
177 178 179
-180 41
-180 66
-41 -66 180
-181 -41
-181 -66
41 66 181
-182 -180
-182 -181
180 181 182
-183 42
-183 67
-42 -67 183
-184 -42
-184 -67
42 67 184
-185 -183
-185 -184
183 184 185
-186 43
-186 68
-43 -68 186
-187 -43
-187 -68
43 68 187
-188 -186
-188 -187
186 187 188
-189 44
-189 69
-44 -69 189
-190 -44
-190 -69
44 69 190
-191 -189
-191 -190
189 190 191
-192 45
-192 70
-45 -70 192
-193 -45
-193 -70
45 70 193
-194 -192
-194 -193
192 193 194
-195 46
-195 71
-46 -71 195
-196 -46
-196 -71
46 71 196
-197 -195
-197 -196
195 196 197
-198 47
-198 72
-47 -72 198
-199 -47
-199 -72
47 72 199
-200 -198
-200 -199
198 199 200
-201 -131
-201 -134
131 134 201
-202 -137
-202 -140
137 140 202
-203 -143
-203 -146
143 146 203
-204 -149
-204 -152
149 152 204
-205 -155
-205 -158
155 158 205
-206 -161
-206 -164
161 164 206
-207 -167
-207 -170
167 170 207
-208 -173
-208 -176
173 176 208
-209 -179
-209 -182
179 182 209
-210 -185
-210 -188
185 188 210
-211 -191
-211 -194
191 194 211
-212 -197
-212 -200
197 200 212
-213 201
-213 202
-201 -202 213
-214 203
-214 204
-203 -204 214
-215 205
-215 206
-205 -206 215
-216 207
-216 208
-207 -208 216
-217 209
-217 210
-209 -210 217
-218 211
-218 212
-211 -212 218
-219 213
-219 214
-213 -214 219
-220 215
-220 216
-215 -216 220
-221 217
-221 218
-217 -218 221
-222 219
-222 220
-219 -220 222
-223 221
-223 222
-221 -222 223
-224 -128
-224 223
128 -223 224
-225 73
-225 224
-73 -224 225
-226 105
-226 225
-105 -225 226
-227 -25
-227 82
25 -82 227
-228 -26
-228 -27
26 27 228
-229 -28
-229 -29
28 29 229
-230 -30
-230 -31
30 31 230
-231 -32
-231 -33
32 33 231
-232 -34
-232 -35
34 35 232
-233 -36
-233 -37
36 37 233
-234 -38
-234 -39
38 39 234
-235 -40
-235 -41
40 41 235
-236 -42
-236 -43
42 43 236
-237 -44
-237 -45
44 45 237
-238 -46
-238 -47
46 47 238
-239 227
-239 228
-227 -228 239
-240 229
-240 230
-229 -230 240
-241 231
-241 232
-231 -232 241
-242 233
-242 234
-233 -234 242
-243 235
-243 236
-235 -236 243
-244 237
-244 238
-237 -238 244
-245 239
-245 240
-239 -240 245
-246 241
-246 242
-241 -242 246
-247 243
-247 244
-243 -244 247
-248 245
-248 246
-245 -246 248
-249 247
-249 248
-247 -248 249
-250 -128
-250 249
128 -249 250
-251 105
-251 -224
-105 224 251
-252 1
-252 -105
-1 105 252
-253 -82
-253 105
82 -105 253
-254 -252
-254 -253
252 253 254
-255 2
-255 -105
-2 105 255
-256 25
-256 105
-25 -105 256
-257 -255
-257 -256
255 256 257
-258 3
-258 -105
-3 105 258
-259 26
-259 105
-26 -105 259
-260 -258
-260 -259
258 259 260
-261 4
-261 -105
-4 105 261
-262 27
-262 105
-27 -105 262
-263 -261
-263 -262
261 262 263
-264 5
-264 -105
-5 105 264
-265 28
-265 105
-28 -105 265
-266 -264
-266 -265
264 265 266
-267 6
-267 -105
-6 105 267
-268 29
-268 105
-29 -105 268
-269 -267
-269 -268
267 268 269
-270 7
-270 -105
-7 105 270
-271 30
-271 105
-30 -105 271
-272 -270
-272 -271
270 271 272
-273 8
-273 -105
-8 105 273
-274 31
-274 105
-31 -105 274
-275 -273
-275 -274
273 274 275
-276 9
-276 -105
-9 105 276
-277 32
-277 105
-32 -105 277
-278 -276
-278 -277
276 277 278
-279 10
-279 -105
-10 105 279
-280 33
-280 105
-33 -105 280
-281 -279
-281 -280
279 280 281
-282 11
-282 -105
-11 105 282
-283 34
-283 105
-34 -105 283
-284 -282
-284 -283
282 283 284
-285 12
-285 -105
-12 105 285
-286 35
-286 105
-35 -105 286
-287 -285
-287 -286
285 286 287
-288 13
-288 -105
-13 105 288
-289 36
-289 105
-36 -105 289
-290 -288
-290 -289
288 289 290
-291 14
-291 -105
-14 105 291
-292 37
-292 105
-37 -105 292
-293 -291
-293 -292
291 292 293
-294 15
-294 -105
-15 105 294
-295 38
-295 105
-38 -105 295
-296 -294
-296 -295
294 295 296
-297 16
-297 -105
-16 105 297
-298 39
-298 105
-39 -105 298
-299 -297
-299 -298
297 298 299
-300 17
-300 -105
-17 105 300
-301 40
-301 105
-40 -105 301
-302 -300
-302 -301
300 301 302
-303 18
-303 -105
-18 105 303
-304 41
-304 105
-41 -105 304
-305 -303
-305 -304
303 304 305
-306 19
-306 -105
-19 105 306
-307 42
-307 105
-42 -105 307
-308 -306
-308 -307
306 307 308
-309 20
-309 -105
-20 105 309
-310 43
-310 105
-43 -105 310
-311 -309
-311 -310
309 310 311
-312 21
-312 -105
-21 105 312
-313 44
-313 105
-44 -105 313
-314 -312
-314 -313
312 313 314
-315 22
-315 -105
-22 105 315
-316 45
-316 105
-45 -105 316
-317 -315
-317 -316
315 316 317
-318 23
-318 -105
-23 105 318
-319 46
-319 105
-46 -105 319
-320 -318
-320 -319
318 319 320
-321 24
-321 -105
-24 105 321
-322 47
-322 105
-47 -105 322
-323 -321
-323 -322
321 322 323
-324 49
-324 105
-49 -105 324
-325 -252
-325 -324
252 324 325
-326 50
-326 105
-50 -105 326
-327 -255
-327 -326
255 326 327
-328 51
-328 105
-51 -105 328
-329 -258
-329 -328
258 328 329
-330 52
-330 105
-52 -105 330
-331 -261
-331 -330
261 330 331
-332 53
-332 105
-53 -105 332
-333 -264
-333 -332
264 332 333
-334 54
-334 105
-54 -105 334
-335 -267
-335 -334
267 334 335
-336 55
-336 105
-55 -105 336
-337 -270
-337 -336
270 336 337
-338 56
-338 105
-56 -105 338
-339 -273
-339 -338
273 338 339
-340 57
-340 105
-57 -105 340
-341 -276
-341 -340
276 340 341
-342 58
-342 105
-58 -105 342
-343 -279
-343 -342
279 342 343
-344 59
-344 105
-59 -105 344
-345 -282
-345 -344
282 344 345
-346 60
-346 105
-60 -105 346
-347 -285
-347 -346
285 346 347
-348 61
-348 105
-61 -105 348
-349 -288
-349 -348
288 348 349
-350 62
-350 105
-62 -105 350
-351 -291
-351 -350
291 350 351
-352 63
-352 105
-63 -105 352
-353 -294
-353 -352
294 352 353
-354 64
-354 105
-64 -105 354
-355 -297
-355 -354
297 354 355
-356 65
-356 105
-65 -105 356
-357 -300
-357 -356
300 356 357
-358 66
-358 105
-66 -105 358
-359 -303
-359 -358
303 358 359
-360 67
-360 105
-67 -105 360
-361 -306
-361 -360
306 360 361
-362 68
-362 105
-68 -105 362
-363 -309
-363 -362
309 362 363
-364 69
-364 105
-69 -105 364
-365 -312
-365 -364
312 364 365
-366 70
-366 105
-70 -105 366
-367 -315
-367 -366
315 366 367
-368 71
-368 105
-71 -105 368
-369 -318
-369 -368
318 368 369
-370 72
-370 105
-72 -105 370
-371 -321
-371 -370
321 370 371
-372 -73
-372 251
73 -251 372
-373 -226
-373 -250
226 250 373
-373
